27 31 63 64 11 19 62 88 7 8 18 6 94 96 97 13 
52 69 30 90 10 20 66 32 70 1 
21 73 40 53 26 
28 12 29 76 50 3 68 54 4 55 25 24 80 
5 83 45 82 47 36 49 46 48 
33 65 71 9 51 81 79 78 34 35 77 
72 39 67 23 75 22 41 56 74 58 
95 92 98 59 99 61 85 87 57 43 37 100 91 93 
2 42 15 14 38 44 16 86 84 17 60 89 
